c FILE: i160-342

c SOURCE: From steinlib

c DESCRIPTION: Steinlib instance with 160 nodes and 2544 edges.

p edge 160 2544
e 1 3
e 1 5
e 1 20
e 1 29
e 1 32
e 1 37
e 1 40
e 1 41
e 1 48
e 1 49
e 1 50
e 1 52
e 1 55
e 1 61
e 1 67
e 1 71
e 1 72
e 1 82
e 1 83
e 1 85
e 1 94
e 1 96
e 1 98
e 1 99
e 1 103
e 1 105
e 1 107
e 1 123
e 1 130
e 1 132
e 1 146
e 1 150
e 1 152
e 1 156
e 2 16
e 2 23
e 2 27
e 2 32
e 2 41
e 2 44
e 2 45
e 2 49
e 2 63
e 2 66
e 2 71
e 2 78
e 2 91
e 2 96
e 2 98
e 2 101
e 2 115
e 2 118
e 2 128
e 2 130
e 2 133
e 2 155
e 2 159
e 3 11
e 3 19
e 3 26
e 3 27
e 3 31
e 3 34
e 3 35
e 3 40
e 3 44
e 3 48
e 3 58
e 3 59
e 3 66
e 3 67
e 3 71
e 3 76
e 3 80
e 3 89
e 3 97
e 3 100
e 3 101
e 3 109
e 3 120
e 3 122
e 3 125
e 3 127
e 3 137
e 3 138
e 3 144
e 3 151
e 3 155
e 3 158
e 4 5
e 4 7
e 4 12
e 4 20
e 4 25
e 4 31
e 4 36
e 4 39
e 4 45
e 4 52
e 4 55
e 4 64
e 4 80
e 4 85
e 4 88
e 4 94
e 4 100
e 4 105
e 4 115
e 4 128
e 4 138
e 4 140
e 4 148
e 4 151
e 4 157
e 5 7
e 5 8
e 5 9
e 5 21
e 5 25
e 5 28
e 5 31
e 5 36
e 5 39
e 5 42
e 5 57
e 5 60
e 5 64
e 5 65
e 5 66
e 5 80
e 5 82
e 5 88
e 5 99
e 5 101
e 5 108
e 5 110
e 5 113
e 5 115
e 5 118
e 5 125
e 5 128
e 5 132
e 5 136
e 5 142
e 5 148
e 5 154
e 5 155
e 5 157
e 5 159
e 6 11
e 6 12
e 6 15
e 6 27
e 6 33
e 6 37
e 6 48
e 6 50
e 6 54
e 6 55
e 6 58
e 6 69
e 6 71
e 6 88
e 6 96
e 6 97
e 6 112
e 6 120
e 6 132
e 6 135
e 6 136
e 6 140
e 6 144
e 6 147
e 6 149
e 6 155
e 7 18
e 7 26
e 7 27
e 7 28
e 7 38
e 7 42
e 7 44
e 7 47
e 7 48
e 7 54
e 7 57
e 7 69
e 7 70
e 7 78
e 7 81
e 7 82
e 7 85
e 7 97
e 7 98
e 7 101
e 7 103
e 7 111
e 7 113
e 7 122
e 7 134
e 7 137
e 7 139
e 7 143
e 7 158
e 8 9
e 8 10
e 8 12
e 8 25
e 8 27
e 8 30
e 8 31
e 8 34
e 8 41
e 8 42
e 8 46
e 8 48
e 8 50
e 8 52
e 8 61
e 8 64
e 8 65
e 8 87
e 8 99
e 8 106
e 8 117
e 8 130
e 8 137
e 8 141
e 8 143
e 8 157
e 9 14
e 9 23
e 9 26
e 9 27
e 9 28
e 9 29
e 9 33
e 9 34
e 9 42
e 9 43
e 9 48
e 9 51
e 9 52
e 9 58
e 9 65
e 9 66
e 9 72
e 9 73
e 9 74
e 9 75
e 9 77
e 9 83
e 9 84
e 9 88
e 9 94
e 9 96
e 9 99
e 9 102
e 9 105
e 9 111
e 9 113
e 9 118
e 9 120
e 9 123
e 9 126
e 9 129
e 9 130
e 9 131
e 9 132
e 9 134
e 9 146
e 9 151
e 9 153
e 9 155
e 10 21
e 10 29
e 10 30
e 10 40
e 10 42
e 10 44
e 10 55
e 10 58
e 10 60
e 10 63
e 10 72
e 10 76
e 10 83
e 10 93
e 10 96
e 10 98
e 10 100
e 10 106
e 10 111
e 10 116
e 10 120
e 10 122
e 10 138
e 10 140
e 10 146
e 10 147
e 10 149
e 10 150
e 10 152
e 10 155
e 10 156
e 10 159
e 10 160
e 11 12
e 11 23
e 11 28
e 11 35
e 11 37
e 11 39
e 11 40
e 11 44
e 11 45
e 11 49
e 11 52
e 11 56
e 11 60
e 11 74
e 11 76
e 11 82
e 11 87
e 11 88
e 11 106
e 11 107
e 11 111
e 11 113
e 11 114
e 11 115
e 11 119
e 11 125
e 11 126
e 11 127
e 11 139
e 11 140
e 11 143
e 11 150
e 11 154
e 11 156
e 12 16
e 12 19
e 12 29
e 12 33
e 12 36
e 12 46
e 12 49
e 12 51
e 12 55
e 12 57
e 12 67
e 12 69
e 12 73
e 12 80
e 12 81
e 12 85
e 12 104
e 12 105
e 12 108
e 12 117
e 12 124
e 12 126
e 12 131
e 12 137
e 12 142
e 12 143
e 12 151
e 13 15
e 13 19
e 13 23
e 13 27
e 13 37
e 13 46
e 13 47
e 13 50
e 13 58
e 13 59
e 13 60
e 13 62
e 13 87
e 13 88
e 13 92
e 13 102
e 13 108
e 13 111
e 13 112
e 13 124
e 13 125
e 13 142
e 13 146
e 13 152
e 13 156
e 14 18
e 14 28
e 14 30
e 14 33
e 14 42
e 14 43
e 14 49
e 14 60
e 14 63
e 14 67
e 14 69
e 14 73
e 14 83
e 14 85
e 14 96
e 14 101
e 14 102
e 14 103
e 14 111
e 14 114
e 14 119
e 14 121
e 14 123
e 14 124
e 14 139
e 14 146
e 14 159
e 15 23
e 15 33
e 15 38
e 15 40
e 15 51
e 15 63
e 15 66
e 15 70
e 15 77
e 15 80
e 15 82
e 15 92
e 15 94
e 15 99
e 15 100
e 15 102
e 15 103
e 15 104
e 15 108
e 15 109
e 15 117
e 15 118
e 15 119
e 15 123
e 15 126
e 15 132
e 15 133
e 15 135
e 15 137
e 15 139
e 15 140
e 15 141
e 15 150
e 15 152
e 15 155
e 15 157
e 15 159
e 16 18
e 16 23
e 16 24
e 16 26
e 16 29
e 16 40
e 16 44
e 16 45
e 16 52
e 16 58
e 16 63
e 16 65
e 16 66
e 16 72
e 16 77
e 16 82
e 16 85
e 16 97
e 16 102
e 16 103
e 16 107
e 16 120
e 16 125
e 16 127
e 16 129
e 16 130
e 16 132
e 16 141
e 16 148
e 16 152
e 16 154
e 16 155
e 16 160
e 17 19
e 17 22
e 17 28
e 17 45
e 17 47
e 17 51
e 17 57
e 17 59
e 17 70
e 17 98
e 17 105
e 17 122
e 17 125
e 17 130
e 17 139
e 17 143
e 17 149
e 17 153
e 17 160
e 18 22
e 18 26
e 18 31
e 18 42
e 18 44
e 18 47
e 18 48
e 18 59
e 18 62
e 18 66
e 18 77
e 18 82
e 18 83
e 18 84
e 18 89
e 18 93
e 18 95
e 18 97
e 18 101
e 18 104
e 18 105
e 18 116
e 18 117
e 18 124
e 18 125
e 18 126
e 18 134
e 18 137
e 18 146
e 18 150
e 18 153
e 18 160
e 19 27
e 19 28
e 19 45
e 19 50
e 19 57
e 19 60
e 19 62
e 19 73
e 19 81
e 19 86
e 19 89
e 19 100
e 19 105
e 19 107
e 19 112
e 19 114
e 19 118
e 19 120
e 19 123
e 19 132
e 19 136
e 19 142
e 19 152
e 19 157
e 20 29
e 20 32
e 20 39
e 20 43
e 20 44
e 20 50
e 20 78
e 20 82
e 20 106
e 20 108
e 20 109
e 20 113
e 20 119
e 20 121
e 20 125
e 20 129
e 20 132
e 20 133
e 20 136
e 20 141
e 20 142
e 20 143
e 20 145
e 20 152
e 20 155
e 20 160
e 21 24
e 21 34
e 21 36
e 21 37
e 21 38
e 21 41
e 21 43
e 21 44
e 21 47
e 21 52
e 21 59
e 21 72
e 21 73
e 21 79
e 21 83
e 21 86
e 21 90
e 21 110
e 21 112
e 21 115
e 21 122
e 21 133
e 21 141
e 21 145
e 21 148
e 21 154
e 21 158
e 22 53
e 22 55
e 22 60
e 22 61
e 22 69
e 22 73
e 22 75
e 22 77
e 22 87
e 22 91
e 22 94
e 22 96
e 22 110
e 22 124
e 22 135
e 22 142
e 22 145
e 22 158
e 23 40
e 23 48
e 23 52
e 23 53
e 23 57
e 23 58
e 23 62
e 23 66
e 23 79
e 23 82
e 23 84
e 23 96
e 23 97
e 23 99
e 23 107
e 23 114
e 23 116
e 23 119
e 23 126
e 23 131
e 23 135
e 23 139
e 23 143
e 23 146
e 23 155
e 23 156
e 24 25
e 24 34
e 24 42
e 24 43
e 24 47
e 24 50
e 24 51
e 24 55
e 24 61
e 24 64
e 24 78
e 24 79
e 24 92
e 24 95
e 24 96
e 24 99
e 24 101
e 24 104
e 24 107
e 24 108
e 24 116
e 24 119
e 24 125
e 24 129
e 24 130
e 24 136
e 24 137
e 24 139
e 24 149
e 24 150
e 24 151
e 25 32
e 25 36
e 25 39
e 25 52
e 25 59
e 25 60
e 25 68
e 25 71
e 25 73
e 25 76
e 25 83
e 25 84
e 25 86
e 25 95
e 25 104
e 25 105
e 25 112
e 25 114
e 25 115
e 25 116
e 25 117
e 25 130
e 25 133
e 25 152
e 25 153
e 25 155
e 26 29
e 26 33
e 26 34
e 26 36
e 26 40
e 26 47
e 26 48
e 26 49
e 26 56
e 26 66
e 26 69
e 26 71
e 26 72
e 26 85
e 26 88
e 26 100
e 26 101
e 26 102
e 26 103
e 26 107
e 26 108
e 26 111
e 26 113
e 26 114
e 26 119
e 26 127
e 26 128
e 26 130
e 26 132
e 26 135
e 26 136
e 26 143
e 26 150
e 26 152
e 26 156
e 26 159
e 26 160
e 27 29
e 27 32
e 27 36
e 27 40
e 27 44
e 27 47
e 27 52
e 27 58
e 27 67
e 27 71
e 27 74
e 27 79
e 27 84
e 27 88
e 27 90
e 27 91
e 27 94
e 27 96
e 27 108
e 27 118
e 27 122
e 27 128
e 27 131
e 27 133
e 27 136
e 27 139
e 27 140
e 27 143
e 27 148
e 27 149
e 27 151
e 27 154
e 27 156
e 28 34
e 28 39
e 28 45
e 28 46
e 28 51
e 28 53
e 28 58
e 28 60
e 28 64
e 28 65
e 28 67
e 28 72
e 28 80
e 28 92
e 28 98
e 28 109
e 28 110
e 28 122
e 28 130
e 28 131
e 28 138
e 28 145
e 28 150
e 28 159
e 29 36
e 29 37
e 29 48
e 29 52
e 29 58
e 29 61
e 29 69
e 29 74
e 29 82
e 29 84
e 29 86
e 29 90
e 29 99
e 29 110
e 29 118
e 29 130
e 29 131
e 29 134
e 29 137
e 29 138
e 29 139
e 29 143
e 29 144
e 29 155
e 29 158
e 29 160
e 30 32
e 30 36
e 30 37
e 30 38
e 30 50
e 30 54
e 30 55
e 30 61
e 30 68
e 30 78
e 30 90
e 30 91
e 30 104
e 30 111
e 30 121
e 30 127
e 30 128
e 30 132
e 30 141
e 30 145
e 30 149
e 30 150
e 30 151
e 30 153
e 30 154
e 30 159
e 30 160
e 31 34
e 31 38
e 31 39
e 31 60
e 31 61
e 31 64
e 31 68
e 31 69
e 31 76
e 31 79
e 31 80
e 31 84
e 31 86
e 31 93
e 31 97
e 31 107
e 31 108
e 31 114
e 31 117
e 31 119
e 31 120
e 31 123
e 31 128
e 31 129
e 31 132
e 31 133
e 31 135
e 31 137
e 31 142
e 31 159
e 32 47
e 32 48
e 32 58
e 32 60
e 32 62
e 32 69
e 32 72
e 32 75
e 32 81
e 32 83
e 32 85
e 32 95
e 32 96
e 32 107
e 32 108
e 32 110
e 32 117
e 32 119
e 32 120
e 32 123
e 32 126
e 32 127
e 32 135
e 32 155
e 32 156
e 32 159
e 33 34
e 33 38
e 33 63
e 33 65
e 33 67
e 33 73
e 33 78
e 33 80
e 33 84
e 33 86
e 33 91
e 33 100
e 33 102
e 33 104
e 33 119
e 33 129
e 33 130
e 33 133
e 33 134
e 33 137
e 33 139
e 33 147
e 33 148
e 33 149
e 33 156
e 33 158
e 34 38
e 34 40
e 34 47
e 34 53
e 34 54
e 34 57
e 34 58
e 34 63
e 34 75
e 34 81
e 34 92
e 34 93
e 34 96
e 34 97
e 34 108
e 34 113
e 34 115
e 34 116
e 34 117
e 34 126
e 34 127
e 34 129
e 34 132
e 34 138
e 34 149
e 34 159
e 35 61
e 35 65
e 35 68
e 35 70
e 35 72
e 35 75
e 35 76
e 35 82
e 35 84
e 35 106
e 35 112
e 35 120
e 35 130
e 35 136
e 35 152
e 36 44
e 36 48
e 36 50
e 36 70
e 36 73
e 36 83
e 36 93
e 36 98
e 36 99
e 36 110
e 36 114
e 36 117
e 36 124
e 36 136
e 36 137
e 36 146
e 36 147
e 36 160
e 37 38
e 37 39
e 37 41
e 37 42
e 37 43
e 37 49
e 37 53
e 37 54
e 37 61
e 37 68
e 37 83
e 37 84
e 37 91
e 37 98
e 37 108
e 37 111
e 37 112
e 37 113
e 37 120
e 37 121
e 37 122
e 37 128
e 37 136
e 37 140
e 37 148
e 37 149
e 37 153
e 37 154
e 38 43
e 38 47
e 38 49
e 38 55
e 38 56
e 38 73
e 38 75
e 38 80
e 38 92
e 38 100
e 38 102
e 38 115
e 38 116
e 38 119
e 38 120
e 38 127
e 38 131
e 38 132
e 38 139
e 38 146
e 38 152
e 38 156
e 38 160
e 39 43
e 39 47
e 39 50
e 39 52
e 39 66
e 39 70
e 39 74
e 39 78
e 39 89
e 39 90
e 39 92
e 39 98
e 39 99
e 39 103
e 39 113
e 39 120
e 39 128
e 39 133
e 39 134
e 39 145
e 39 160
e 40 43
e 40 46
e 40 47
e 40 48
e 40 53
e 40 54
e 40 64
e 40 65
e 40 67
e 40 74
e 40 76
e 40 77
e 40 80
e 40 83
e 40 85
e 40 90
e 40 93
e 40 94
e 40 95
e 40 100
e 40 104
e 40 108
e 40 109
e 40 111
e 40 133
e 40 139
e 40 146
e 40 151
e 40 152
e 40 157
e 41 43
e 41 63
e 41 68
e 41 69
e 41 71
e 41 73
e 41 78
e 41 81
e 41 84
e 41 88
e 41 100
e 41 107
e 41 110
e 41 112
e 41 114
e 41 119
e 41 129
e 41 131
e 41 132
e 41 134
e 41 137
e 41 139
e 41 140
e 41 149
e 41 151
e 41 153
e 42 48
e 42 51
e 42 57
e 42 62
e 42 63
e 42 68
e 42 69
e 42 89
e 42 93
e 42 96
e 42 101
e 42 102
e 42 103
e 42 110
e 42 114
e 42 118
e 42 120
e 42 123
e 42 144
e 42 147
e 42 148
e 42 157
e 42 159
e 43 45
e 43 48
e 43 58
e 43 68
e 43 70
e 43 75
e 43 78
e 43 83
e 43 85
e 43 86
e 43 92
e 43 108
e 43 114
e 43 120
e 43 121
e 43 129
e 43 130
e 43 134
e 43 136
e 43 140
e 43 146
e 43 151
e 43 152
e 43 157
e 44 56
e 44 68
e 44 69
e 44 71
e 44 76
e 44 90
e 44 98
e 44 99
e 44 100
e 44 103
e 44 114
e 44 116
e 44 123
e 44 129
e 44 130
e 44 140
e 44 145
e 44 153
e 44 156
e 45 47
e 45 49
e 45 63
e 45 69
e 45 79
e 45 84
e 45 93
e 45 94
e 45 97
e 45 98
e 45 101
e 45 102
e 45 103
e 45 105
e 45 106
e 45 112
e 45 118
e 45 120
e 45 121
e 45 122
e 45 135
e 45 136
e 45 156
e 45 159
e 46 49
e 46 51
e 46 59
e 46 61
e 46 72
e 46 74
e 46 82
e 46 84
e 46 87
e 46 88
e 46 89
e 46 92
e 46 102
e 46 107
e 46 108
e 46 110
e 46 112
e 46 117
e 46 118
e 46 119
e 46 120
e 46 123
e 46 138
e 46 139
e 46 142
e 46 148
e 46 149
e 46 154
e 46 158
e 46 159
e 47 53
e 47 55
e 47 60
e 47 65
e 47 69
e 47 78
e 47 79
e 47 88
e 47 95
e 47 97
e 47 98
e 47 99
e 47 102
e 47 103
e 47 107
e 47 110
e 47 118
e 47 124
e 47 132
e 47 140
e 48 49
e 48 59
e 48 62
e 48 66
e 48 76
e 48 79
e 48 86
e 48 88
e 48 97
e 48 98
e 48 99
e 48 117
e 48 122
e 48 125
e 48 126
e 48 144
e 48 145
e 48 146
e 48 157
e 49 56
e 49 57
e 49 67
e 49 80
e 49 93
e 49 96
e 49 98
e 49 99
e 49 100
e 49 104
e 49 108
e 49 109
e 49 110
e 49 113
e 49 119
e 49 120
e 49 122
e 49 131
e 49 133
e 49 136
e 49 143
e 49 145
e 49 153
e 50 62
e 50 65
e 50 70
e 50 73
e 50 80
e 50 88
e 50 89
e 50 90
e 50 91
e 50 108
e 50 118
e 50 119
e 50 137
e 50 152
e 50 158
e 51 53
e 51 66
e 51 68
e 51 70
e 51 73
e 51 77
e 51 101
e 51 103
e 51 112
e 51 119
e 51 135
e 51 138
e 51 140
e 51 148
e 51 149
e 51 158
e 52 59
e 52 61
e 52 63
e 52 66
e 52 81
e 52 82
e 52 85
e 52 89
e 52 90
e 52 97
e 52 98
e 52 119
e 52 121
e 52 129
e 52 136
e 52 140
e 52 141
e 52 142
e 52 148
e 52 152
e 52 155
e 52 157
e 53 58
e 53 60
e 53 61
e 53 69
e 53 74
e 53 90
e 53 95
e 53 96
e 53 101
e 53 108
e 53 116
e 53 117
e 53 121
e 53 122
e 53 128
e 53 133
e 53 134
e 53 138
e 53 140
e 53 146
e 53 149
e 54 55
e 54 60
e 54 61
e 54 64
e 54 65
e 54 66
e 54 67
e 54 69
e 54 74
e 54 76
e 54 77
e 54 78
e 54 85
e 54 88
e 54 97
e 54 98
e 54 99
e 54 100
e 54 102
e 54 103
e 54 105
e 54 106
e 54 108
e 54 110
e 54 111
e 54 123
e 54 127
e 54 133
e 54 138
e 54 147
e 54 148
e 54 149
e 54 150
e 54 152
e 54 153
e 54 156
e 54 157
e 55 68
e 55 78
e 55 81
e 55 83
e 55 84
e 55 85
e 55 91
e 55 94
e 55 101
e 55 103
e 55 106
e 55 111
e 55 117
e 55 119
e 55 125
e 55 144
e 55 158
e 56 57
e 56 63
e 56 69
e 56 70
e 56 82
e 56 84
e 56 90
e 56 95
e 56 100
e 56 104
e 56 107
e 56 109
e 56 114
e 56 115
e 56 118
e 56 129
e 56 132
e 56 134
e 56 135
e 56 143
e 56 153
e 56 156
e 56 158
e 57 62
e 57 72
e 57 90
e 57 99
e 57 101
e 57 112
e 57 128
e 57 136
e 57 139
e 57 143
e 57 144
e 57 146
e 57 148
e 57 150
e 57 152
e 57 153
e 57 156
e 57 158
e 58 59
e 58 65
e 58 69
e 58 71
e 58 72
e 58 77
e 58 80
e 58 83
e 58 87
e 58 98
e 58 100
e 58 102
e 58 106
e 58 118
e 58 121
e 58 130
e 58 136
e 58 143
e 58 144
e 58 145
e 58 152
e 59 60
e 59 67
e 59 74
e 59 76
e 59 82
e 59 86
e 59 90
e 59 93
e 59 100
e 59 108
e 59 112
e 59 114
e 59 117
e 59 119
e 59 136
e 59 146
e 59 156
e 60 65
e 60 73
e 60 79
e 60 84
e 60 92
e 60 99
e 60 107
e 60 119
e 60 127
e 60 144
e 60 146
e 60 147
e 60 150
e 60 155
e 60 157
e 61 67
e 61 70
e 61 75
e 61 77
e 61 82
e 61 86
e 61 94
e 61 98
e 61 99
e 61 106
e 61 110
e 61 115
e 61 116
e 61 129
e 61 134
e 61 135
e 61 139
e 61 142
e 61 145
e 61 149
e 61 151
e 61 157
e 62 64
e 62 65
e 62 69
e 62 72
e 62 84
e 62 93
e 62 95
e 62 96
e 62 99
e 62 108
e 62 113
e 62 116
e 62 123
e 62 130
e 62 139
e 62 144
e 62 146
e 62 153
e 62 155
e 62 159
e 63 64
e 63 80
e 63 84
e 63 85
e 63 87
e 63 93
e 63 96
e 63 98
e 63 102
e 63 104
e 63 105
e 63 107
e 63 116
e 63 118
e 63 133
e 63 134
e 63 138
e 63 139
e 63 159
e 63 160
e 64 75
e 64 85
e 64 87
e 64 88
e 64 93
e 64 104
e 64 114
e 64 116
e 64 117
e 64 118
e 64 119
e 64 122
e 64 133
e 64 137
e 64 140
e 64 141
e 64 142
e 64 151
e 64 152
e 64 153
e 64 158
e 64 159
e 65 72
e 65 83
e 65 84
e 65 99
e 65 111
e 65 114
e 65 115
e 65 116
e 65 117
e 65 118
e 65 132
e 65 137
e 65 139
e 65 140
e 65 146
e 65 149
e 65 159
e 66 68
e 66 70
e 66 71
e 66 83
e 66 92
e 66 95
e 66 97
e 66 98
e 66 121
e 66 123
e 66 133
e 66 134
e 66 135
e 66 139
e 66 152
e 66 156
e 66 157
e 66 159
e 67 69
e 67 77
e 67 80
e 67 81
e 67 86
e 67 87
e 67 89
e 67 91
e 67 101
e 67 103
e 67 113
e 67 118
e 67 122
e 67 124
e 67 128
e 67 131
e 67 138
e 67 145
e 67 153
e 67 155
e 67 157
e 68 72
e 68 75
e 68 78
e 68 79
e 68 96
e 68 97
e 68 101
e 68 102
e 68 103
e 68 114
e 68 116
e 68 117
e 68 122
e 68 126
e 68 129
e 68 133
e 68 137
e 68 148
e 68 152
e 68 153
e 68 159
e 69 73
e 69 79
e 69 85
e 69 86
e 69 95
e 69 97
e 69 104
e 69 115
e 69 117
e 69 121
e 69 125
e 69 126
e 69 129
e 69 131
e 69 133
e 69 138
e 69 142
e 69 146
e 69 154
e 69 158
e 69 160
e 70 72
e 70 93
e 70 94
e 70 96
e 70 98
e 70 105
e 70 115
e 70 122
e 70 123
e 70 125
e 70 126
e 70 136
e 70 148
e 70 154
e 70 155
e 70 156
e 71 81
e 71 82
e 71 84
e 71 89
e 71 93
e 71 95
e 71 106
e 71 111
e 71 113
e 71 116
e 71 117
e 71 129
e 71 139
e 71 140
e 71 143
e 71 149
e 71 159
e 72 93
e 72 103
e 72 104
e 72 115
e 72 119
e 72 126
e 72 129
e 72 135
e 72 142
e 72 147
e 72 156
e 72 157
e 73 74
e 73 77
e 73 80
e 73 86
e 73 97
e 73 101
e 73 105
e 73 106
e 73 107
e 73 114
e 73 128
e 73 129
e 73 133
e 73 135
e 73 138
e 73 139
e 73 144
e 73 152
e 73 153
e 73 156
e 73 159
e 74 78
e 74 80
e 74 82
e 74 83
e 74 91
e 74 98
e 74 99
e 74 100
e 74 106
e 74 108
e 74 110
e 74 115
e 74 136
e 74 137
e 74 141
e 74 148
e 74 149
e 75 83
e 75 87
e 75 91
e 75 92
e 75 99
e 75 113
e 75 114
e 75 115
e 75 116
e 75 130
e 75 132
e 75 136
e 75 137
e 75 139
e 75 142
e 75 149
e 76 79
e 76 80
e 76 87
e 76 93
e 76 94
e 76 97
e 76 104
e 76 106
e 76 108
e 76 115
e 76 118
e 76 137
e 76 143
e 76 153
e 76 159
e 77 78
e 77 79
e 77 81
e 77 83
e 77 84
e 77 85
e 77 93
e 77 95
e 77 96
e 77 101
e 77 106
e 77 110
e 77 115
e 77 118
e 77 119
e 77 124
e 77 127
e 77 128
e 77 132
e 77 138
e 77 142
e 78 83
e 78 87
e 78 91
e 78 97
e 78 108
e 78 113
e 78 117
e 78 119
e 78 121
e 78 127
e 78 128
e 78 129
e 78 133
e 78 134
e 78 139
e 78 140
e 78 142
e 78 145
e 78 154
e 78 156
e 79 83
e 79 91
e 79 99
e 79 111
e 79 117
e 79 118
e 79 119
e 79 130
e 79 133
e 79 142
e 79 145
e 79 149
e 79 150
e 79 153
e 80 85
e 80 86
e 80 104
e 80 132
e 80 135
e 80 136
e 80 137
e 80 144
e 80 148
e 80 154
e 80 159
e 81 85
e 81 88
e 81 92
e 81 98
e 81 101
e 81 102
e 81 105
e 81 106
e 81 115
e 81 119
e 81 123
e 81 126
e 81 127
e 81 130
e 81 133
e 81 136
e 81 142
e 81 144
e 81 146
e 81 147
e 81 148
e 81 150
e 81 151
e 81 152
e 81 153
e 81 154
e 81 155
e 81 156
e 82 90
e 82 92
e 82 97
e 82 103
e 82 109
e 82 111
e 82 112
e 82 117
e 82 119
e 82 124
e 82 127
e 82 134
e 82 136
e 82 144
e 82 152
e 82 153
e 82 154
e 82 156
e 83 88
e 83 104
e 83 106
e 83 109
e 83 112
e 83 116
e 83 125
e 83 129
e 83 131
e 83 146
e 83 148
e 83 152
e 83 159
e 84 87
e 84 89
e 84 90
e 84 100
e 84 102
e 84 111
e 84 112
e 84 118
e 84 124
e 84 145
e 84 146
e 84 149
e 84 151
e 84 152
e 84 153
e 84 159
e 85 89
e 85 94
e 85 95
e 85 110
e 85 115
e 85 117
e 85 122
e 85 129
e 85 137
e 85 140
e 85 152
e 85 155
e 86 89
e 86 91
e 86 105
e 86 116
e 86 122
e 86 130
e 86 131
e 86 132
e 86 136
e 86 137
e 86 155
e 86 158
e 87 96
e 87 100
e 87 106
e 87 113
e 87 128
e 87 130
e 87 132
e 87 139
e 87 146
e 87 152
e 87 154
e 87 160
e 88 90
e 88 92
e 88 93
e 88 108
e 88 114
e 88 123
e 88 134
e 88 141
e 88 142
e 88 143
e 88 145
e 88 146
e 89 92
e 89 95
e 89 107
e 89 130
e 89 135
e 89 136
e 89 138
e 89 139
e 89 140
e 89 142
e 89 145
e 89 146
e 89 152
e 89 158
e 89 159
e 90 94
e 90 96
e 90 104
e 90 106
e 90 109
e 90 114
e 90 116
e 90 118
e 90 121
e 90 123
e 90 124
e 90 125
e 90 128
e 90 133
e 90 139
e 90 140
e 90 147
e 90 148
e 90 154
e 90 159
e 91 103
e 91 105
e 91 106
e 91 108
e 91 109
e 91 122
e 91 127
e 91 128
e 91 130
e 91 133
e 91 136
e 91 139
e 91 143
e 91 146
e 91 148
e 92 94
e 92 97
e 92 99
e 92 111
e 92 126
e 92 131
e 92 136
e 92 137
e 92 149
e 92 160
e 93 96
e 93 104
e 93 105
e 93 106
e 93 108
e 93 112
e 93 114
e 93 126
e 93 134
e 93 137
e 93 138
e 93 142
e 93 143
e 93 147
e 93 148
e 93 155
e 93 156
e 93 157
e 93 160
e 94 104
e 94 106
e 94 108
e 94 120
e 94 129
e 94 134
e 94 137
e 94 139
e 94 141
e 94 145
e 94 147
e 94 159
e 95 103
e 95 104
e 95 105
e 95 108
e 95 120
e 95 122
e 95 124
e 95 128
e 95 131
e 95 143
e 95 148
e 96 103
e 96 105
e 96 108
e 96 116
e 96 118
e 96 124
e 96 130
e 96 135
e 96 139
e 96 140
e 96 142
e 96 154
e 96 155
e 96 157
e 96 159
e 96 160
e 97 98
e 97 111
e 97 112
e 97 113
e 97 123
e 97 141
e 97 149
e 98 109
e 98 111
e 98 118
e 98 119
e 98 129
e 98 131
e 98 132
e 98 136
e 98 142
e 98 143
e 98 144
e 98 145
e 98 160
e 99 101
e 99 107
e 99 108
e 99 112
e 99 113
e 99 114
e 99 124
e 99 126
e 99 132
e 99 134
e 99 137
e 99 141
e 99 156
e 99 158
e 100 115
e 100 116
e 100 117
e 100 122
e 100 123
e 100 124
e 100 125
e 100 126
e 100 128
e 100 136
e 100 140
e 100 156
e 101 103
e 101 105
e 101 110
e 101 117
e 101 120
e 101 122
e 101 123
e 101 131
e 101 132
e 101 136
e 101 143
e 101 149
e 101 154
e 101 155
e 101 156
e 101 157
e 102 108
e 102 112
e 102 120
e 102 123
e 102 128
e 102 146
e 102 149
e 102 151
e 102 154
e 103 105
e 103 107
e 103 111
e 103 112
e 103 114
e 103 120
e 103 125
e 103 134
e 103 145
e 103 146
e 103 151
e 103 156
e 104 106
e 104 110
e 104 113
e 104 120
e 104 124
e 104 133
e 104 140
e 104 159
e 105 106
e 105 112
e 105 113
e 105 115
e 105 118
e 105 120
e 105 124
e 105 128
e 105 138
e 105 141
e 105 142
e 105 144
e 105 155
e 105 159
e 106 120
e 106 126
e 106 132
e 106 143
e 106 147
e 106 148
e 106 157
e 106 158
e 107 117
e 107 121
e 107 128
e 107 133
e 107 138
e 107 140
e 107 154
e 107 155
e 107 158
e 107 160
e 108 118
e 108 119
e 108 122
e 108 126
e 108 136
e 108 149
e 108 156
e 108 158
e 109 110
e 109 120
e 109 122
e 109 127
e 109 130
e 109 134
e 109 138
e 109 146
e 109 148
e 109 155
e 109 157
e 109 160
e 110 113
e 110 124
e 110 125
e 110 127
e 110 134
e 110 137
e 110 138
e 110 141
e 110 147
e 110 153
e 110 154
e 111 120
e 111 124
e 111 130
e 111 136
e 111 147
e 111 149
e 112 116
e 112 120
e 112 131
e 112 134
e 112 136
e 112 139
e 112 145
e 112 156
e 112 158
e 112 160
e 113 117
e 113 119
e 113 132
e 113 137
e 113 142
e 113 143
e 113 150
e 113 151
e 113 156
e 113 157
e 114 115
e 114 116
e 114 120
e 114 127
e 114 128
e 114 129
e 114 130
e 114 131
e 114 133
e 114 139
e 114 141
e 114 145
e 114 146
e 114 151
e 115 118
e 115 120
e 115 125
e 115 131
e 115 132
e 115 138
e 115 139
e 115 140
e 115 144
e 115 146
e 115 155
e 116 117
e 116 118
e 116 123
e 116 128
e 116 136
e 116 141
e 116 143
e 116 144
e 116 147
e 116 151
e 117 122
e 117 129
e 117 134
e 117 146
e 117 147
e 117 151
e 117 158
e 117 159
e 118 121
e 118 126
e 118 130
e 118 139
e 118 140
e 118 142
e 118 143
e 118 144
e 118 148
e 118 156
e 119 132
e 119 139
e 119 154
e 119 155
e 120 131
e 120 137
e 120 143
e 120 145
e 120 155
e 120 156
e 121 135
e 121 139
e 121 144
e 121 147
e 121 148
e 121 155
e 121 160
e 122 128
e 122 130
e 122 132
e 122 141
e 122 147
e 122 150
e 122 152
e 122 155
e 122 158
e 123 131
e 123 138
e 123 140
e 123 141
e 123 144
e 123 153
e 123 157
e 123 159
e 123 160
e 124 135
e 124 140
e 124 145
e 124 153
e 125 126
e 125 132
e 125 135
e 125 137
e 125 147
e 125 155
e 126 128
e 126 142
e 126 147
e 126 150
e 126 151
e 126 153
e 126 155
e 127 132
e 127 133
e 127 141
e 127 142
e 127 143
e 127 145
e 127 152
e 127 155
e 128 130
e 128 132
e 128 146
e 128 151
e 128 152
e 129 134
e 129 137
e 129 142
e 129 147
e 129 149
e 129 151
e 129 160
e 130 134
e 130 146
e 130 148
e 130 151
e 130 154
e 130 155
e 130 159
e 131 132
e 131 137
e 131 138
e 131 142
e 131 145
e 131 146
e 131 148
e 132 137
e 132 140
e 132 144
e 132 156
e 133 134
e 133 140
e 133 149
e 133 156
e 133 160
e 134 155
e 135 145
e 135 147
e 135 157
e 136 137
e 136 138
e 136 140
e 136 149
e 136 150
e 136 151
e 136 152
e 136 153
e 136 154
e 136 160
e 137 145
e 137 149
e 137 150
e 137 152
e 137 154
e 137 157
e 137 160
e 138 145
e 138 149
e 139 140
e 139 156
e 139 157
e 139 159
e 140 150
e 140 151
e 140 152
e 140 158
e 141 142
e 141 143
e 141 144
e 141 146
e 141 153
e 141 157
e 142 151
e 142 158
e 143 150
e 143 153
e 143 159
e 144 146
e 144 154
e 145 147
e 145 148
e 145 152
e 146 150
e 146 151
e 146 160
e 147 148
e 147 149
e 147 151
e 147 154
e 148 150
e 148 152
e 148 159
e 149 152
e 149 153
e 149 157
e 149 160
e 150 160
e 151 152
e 152 156
e 152 159
e 152 160
e 154 155
e 154 156
e 154 160
e 155 157
e 156 158
e 156 160
e 158 159
e 158 160
